
n_res = 6;
rcap = [72, 68, 577, 592, 519, 611];
rtype = [1, 1, 2, 2, 2, 2];
n_tasks = 50;
modes =  [{1, 2, 3, 4, 5, 6}, {7, 8, 9, 10, 11, 12}, {13, 14, 15, 16, 17, 18}, {19, 20, 21, 22, 23, 24}, {25, 26, 27, 28, 29, 30}, {31, 32, 33, 34, 35, 36}, {37, 38, 39, 40, 41, 42}, {43, 44, 45, 46, 47, 48}, {49, 50, 51, 52, 53, 54}, {55, 56, 57, 58, 59, 60}, {61, 62, 63, 64, 65, 66}, {67, 68, 69, 70, 71, 72}, {73, 74, 75, 76, 77, 78}, {79, 80, 81, 82, 83, 84}, {85, 86, 87, 88, 89, 90}, {91, 92, 93, 94, 95, 96}, {97, 98, 99, 100, 101, 102}, {103, 104, 105, 106, 107, 108}, {109, 110, 111, 112, 113, 114}, {115, 116, 117, 118, 119, 120}, {121, 122, 123, 124, 125, 126}, {127, 128, 129, 130, 131, 132}, {133, 134, 135, 136, 137, 138}, {139, 140, 141, 142, 143, 144}, {145, 146, 147, 148, 149, 150}, {151, 152, 153, 154, 155, 156}, {157, 158, 159, 160, 161, 162}, {163, 164, 165, 166, 167, 168}, {169, 170, 171, 172, 173, 174}, {175, 176, 177, 178, 179, 180}, {181, 182, 183, 184, 185, 186}, {187, 188, 189, 190, 191, 192}, {193, 194, 195, 196, 197, 198}, {199, 200, 201, 202, 203, 204}, {205, 206, 207, 208, 209, 210}, {211, 212, 213, 214, 215, 216}, {217, 218, 219, 220, 221, 222}, {223, 224, 225, 226, 227, 228}, {229, 230, 231, 232, 233, 234}, {235, 236, 237, 238, 239, 240}, {241, 242, 243, 244, 245, 246}, {247, 248, 249, 250, 251, 252}, {253, 254, 255, 256, 257, 258}, {259, 260, 261, 262, 263, 264}, {265, 266, 267, 268, 269, 270}, {271, 272, 273, 274, 275, 276}, {277, 278, 279, 280, 281, 282}, {283, 284, 285, 286, 287, 288}, {289, 290, 291, 292, 293, 294}, {295, 296, 297, 298, 299, 300}];
succ =  [{14, 12, 2}, {8, 4}, {9, 6}, {18, 15, 13, 11}, {16, 15, 8}, {18, 7}, {21, 20, 19, 17, 16, 15}, {19, 18, 17, 13}, {19, 17, 13}, {19, 17, 13}, {21, 19, 17, 16}, {21, 20, 19, 15}, {29, 27, 22, 21, 20}, {21, 17}, {32, 27, 24, 23, 22}, {32, 27, 24, 23, 22}, {27, 24, 23, 22}, {27, 24, 23, 22}, {31, 27, 26, 25, 24}, {36, 32, 31, 30, 26}, {31, 30, 26, 24}, {30, 26, 25}, {37, 36, 31, 29, 28}, {37, 36, 34, 28}, {37, 36, 34, 28}, {37, 34, 28}, {37, 34, 28}, {50, 40, 38, 35, 33}, {50, 40, 30}, {44, 41, 39, 38}, {41, 38, 35}, {50, 44, 39, 37}, {44, 43, 42, 41}, {50, 49, 43, 39}, {49, 48, 39}, {39, 38}, {49, 48, 47, 45, 42}, {47, 43, 42}, {47, 45, 42}, {48, 45, 42}, {49, 48, 45}, {46}, {45}, {47}, {}, {}, {}, {}, {}, {}];
n_opt = 300;
dur = [4, 6, 8, 9, 10, 17, 3, 5, 6, 9, 14, 17, 2, 4, 11, 14, 17, 18, 1, 2, 6, 12, 14, 15, 2, 5, 7, 13, 16, 19, 9, 12, 14, 15, 16, 20, 1, 8, 13, 15, 17, 18, 1, 2, 3, 12, 15, 20, 1, 3, 7, 8, 11, 12, 2, 3, 6, 7, 11, 16, 1, 2, 11, 12, 13, 17, 2, 7, 9, 11, 14, 15, 8, 10, 12, 13, 14, 18, 1, 2, 4, 5, 9, 19, 1, 2, 8, 9, 11, 18, 8, 10, 12, 16, 18, 20, 5, 8, 9, 11, 16, 19, 3, 6, 8, 11, 17, 18, 1, 5, 6, 8, 13, 20, 4, 6, 8, 10, 11, 14, 1, 2, 5, 8, 12, 18, 7, 9, 10, 14, 15, 18, 7, 9, 11, 15, 16, 17, 5, 10, 11, 12, 13, 14, 1, 2, 6, 11, 16, 19, 1, 10, 11, 16, 18, 19, 2, 8, 11, 13, 18, 20, 2, 6, 8, 9, 12, 19, 1, 3, 4, 7, 17, 19, 6, 7, 12, 15, 19, 20, 8, 11, 12, 13, 19, 20, 4, 5, 13, 15, 17, 20, 1, 5, 6, 7, 11, 14, 2, 6, 14, 15, 18, 19, 5, 6, 16, 17, 18, 19, 1, 3, 7, 13, 16, 20, 1, 3, 5, 7, 16, 17, 2, 3, 4, 9, 11, 13, 1, 2, 4, 5, 16, 17, 3, 4, 6, 7, 8, 20, 8, 11, 12, 16, 18, 20, 1, 6, 7, 8, 11, 15, 2, 3, 4, 10, 11, 15, 1, 5, 8, 14, 15, 18, 2, 14, 15, 16, 17, 18, 3, 6, 7, 11, 12, 16, 8, 12, 13, 15, 18, 20, 5, 8, 13, 14, 15, 20, 1, 6, 7, 9, 13, 20, 1, 2, 3, 10, 11, 18];
rreq = [|15, 13, 13, 11, 11, 10, 11, 11, 10, 9, 7, 6, 18, 14, 14, 12, 6, 6, 10, 9, 9, 7, 7, 6, 18, 17, 17, 17, 17, 17, 12, 9, 8, 8, 5, 5, 1, 1, 1, 1, 1, 1, 9, 8, 8, 7, 7, 6, 15, 14, 13, 10, 8, 7, 15, 11, 10, 8, 6, 3, 4, 4, 4, 4, 4, 4, 9, 8, 7, 7, 5, 4, 4, 4, 4, 4, 4, 4, 10, 9, 8, 6, 5, 5, 2, 1, 1, 1, 1, 1, 19, 15, 12, 10, 7, 5, 6, 6, 6, 5, 5, 5, 18, 15, 15, 11, 10, 9, 15, 12, 12, 10, 10, 9, 12, 12, 12, 11, 11, 11, 14, 13, 12, 10, 8, 7, 15, 15, 13, 13, 11, 10, 9, 9, 9, 8, 7, 7, 15, 13, 11, 8, 5, 3, 20, 19, 19, 19, 19, 19, 3, 2, 2, 1, 1, 1, 18, 13, 10, 7, 4, 1, 11, 11, 10, 10, 9, 8, 13, 9, 7, 7, 4, 1, 8, 8, 8, 8, 7, 7, 20, 20, 20, 20, 20, 20, 12, 9, 7, 5, 3, 1, 15, 13, 13, 10, 8, 8, 12, 12, 10, 9, 8, 8, 11, 9, 6, 6, 5, 2, 19, 18, 16, 15, 15, 13, 20, 19, 18, 18, 18, 17, 13, 13, 13, 13, 13, 13, 16, 15, 12, 12, 9, 7, 17, 17, 17, 17, 17, 17, 14, 11, 10, 9, 8, 8, 10, 8, 8, 5, 3, 2, 14, 10, 9, 7, 5, 1, 13, 11, 9, 6, 6, 4, 11, 11, 11, 11, 11, 11, 11, 9, 8, 6, 3, 2, 4, 3, 3, 3, 2, 2, 9, 8, 7, 7, 6, 6, 2, 2, 2, 1, 1, 1, 13, 9, 9, 7, 5, 4
 |17, 16, 10, 8, 6, 4, 18, 14, 10, 7, 4, 2, 16, 15, 14, 12, 7, 6, 14, 14, 14, 13, 13, 13, 17, 15, 11, 9, 6, 2, 11, 9, 8, 7, 5, 3, 11, 11, 10, 10, 10, 9, 10, 8, 6, 6, 4, 3, 7, 7, 6, 5, 4, 3, 15, 11, 9, 9, 7, 5, 17, 14, 13, 12, 9, 7, 16, 15, 15, 15, 15, 15, 12, 11, 10, 7, 7, 6, 16, 16, 15, 15, 15, 14, 14, 14, 14, 14, 13, 13, 16, 14, 13, 13, 12, 11, 18, 16, 16, 14, 11, 10, 14, 13, 11, 10, 8, 6, 10, 7, 6, 6, 5, 4, 13, 11, 10, 10, 8, 7, 8, 8, 8, 7, 7, 7, 15, 14, 14, 14, 14, 14, 17, 17, 17, 17, 17, 17, 13, 11, 11, 10, 9, 9, 18, 15, 11, 7, 3, 2, 8, 6, 5, 5, 4, 3, 11, 9, 7, 7, 6, 5, 11, 11, 11, 11, 11, 11, 10, 9, 8, 8, 7, 7, 3, 3, 3, 2, 1, 1, 16, 14, 13, 11, 10, 7, 17, 17, 12, 8, 8, 3, 17, 17, 17, 17, 17, 17, 16, 14, 14, 13, 13, 12, 20, 17, 16, 15, 13, 12, 12, 12, 11, 11, 9, 9, 11, 11, 10, 10, 10, 9, 15, 13, 9, 8, 4, 3, 16, 14, 13, 13, 12, 10, 16, 15, 14, 12, 11, 8, 14, 14, 13, 12, 11, 11, 14, 10, 10, 7, 5, 4, 15, 13, 11, 9, 8, 4, 17, 15, 12, 10, 8, 4, 19, 17, 16, 16, 14, 13, 12, 11, 10, 10, 9, 8, 11, 8, 7, 4, 2, 1, 17, 16, 14, 8, 8, 4, 17, 16, 15, 12, 10, 10, 8, 8, 7, 6, 6, 5
 |17, 15, 15, 10, 8, 6, 17, 15, 15, 14, 12, 10, 8, 8, 6, 5, 2, 2, 3, 3, 3, 2, 1, 1, 17, 16, 16, 16, 15, 15, 18, 17, 17, 16, 16, 16, 13, 13, 13, 13, 12, 12, 9, 7, 6, 5, 4, 3, 10, 7, 5, 5, 4, 1, 6, 6, 6, 6, 6, 6, 15, 15, 13, 13, 11, 11, 9, 9, 8, 8, 7, 6, 18, 17, 17, 16, 15, 14, 17, 15, 13, 12, 11, 10, 6, 6, 6, 6, 6, 6, 16, 12, 12, 10, 7, 5, 16, 14, 11, 9, 4, 2, 17, 15, 12, 12, 11, 9, 10, 10, 10, 10, 9, 9, 19, 19, 18, 18, 17, 17, 8, 8, 8, 8, 8, 8, 6, 5, 5, 4, 4, 3, 20, 19, 18, 17, 16, 16, 17, 17, 16, 15, 14, 13, 15, 10, 8, 7, 5, 3, 3, 3, 3, 3, 3, 3, 10, 10, 9, 9, 7, 7, 17, 16, 15, 15, 14, 14, 20, 17, 16, 14, 14, 12, 5, 4, 4, 4, 3, 3, 19, 19, 19, 19, 19, 19, 14, 13, 11, 9, 8, 5, 16, 15, 13, 11, 9, 6, 9, 7, 6, 6, 5, 4, 5, 5, 5, 4, 4, 4, 18, 17, 13, 13, 10, 9, 16, 15, 15, 14, 13, 13, 15, 13, 13, 12, 11, 10, 13, 12, 10, 9, 7, 6, 12, 11, 9, 5, 4, 2, 2, 2, 2, 2, 1, 1, 19, 17, 15, 12, 12, 10, 14, 13, 12, 11, 10, 9, 14, 11, 10, 8, 7, 7, 18, 17, 16, 15, 14, 14, 14, 12, 10, 8, 7, 7, 5, 4, 4, 4, 4, 4, 12, 9, 9, 7, 3, 3, 13, 12, 12, 12, 12, 12, 8, 7, 7, 7, 6, 6
 |19, 18, 17, 17, 16, 16, 13, 11, 9, 8, 7, 6, 7, 6, 6, 6, 5, 5, 7, 7, 6, 6, 6, 5, 7, 6, 5, 5, 5, 4, 19, 16, 12, 7, 5, 3, 12, 11, 10, 10, 9, 8, 17, 15, 14, 13, 12, 12, 18, 17, 15, 12, 12, 10, 3, 3, 3, 3, 3, 3, 17, 17, 17, 17, 17, 17, 16, 15, 15, 15, 15, 15, 18, 16, 13, 12, 10, 7, 12, 11, 9, 7, 4, 3, 10, 9, 8, 8, 8, 7, 13, 12, 12, 12, 12, 12, 14, 12, 11, 10, 8, 7, 9, 9, 8, 8, 8, 7, 20, 15, 15, 11, 10, 6, 10, 10, 10, 10, 10, 10, 11, 9, 7, 7, 6, 5, 17, 15, 11, 9, 6, 3, 8, 7, 6, 6, 4, 3, 18, 15, 14, 12, 10, 9, 18, 13, 11, 10, 6, 5, 13, 13, 10, 9, 7, 6, 11, 10, 8, 6, 4, 4, 15, 15, 13, 13, 12, 10, 14, 14, 14, 14, 14, 14, 12, 9, 8, 7, 7, 6, 10, 8, 7, 7, 6, 5, 6, 6, 5, 5, 4, 3, 19, 14, 12, 10, 6, 4, 15, 10, 10, 8, 5, 4, 11, 10, 9, 8, 6, 6, 18, 15, 14, 10, 10, 8, 18, 16, 14, 10, 7, 2, 6, 5, 4, 3, 3, 2, 15, 14, 14, 14, 14, 14, 17, 15, 11, 11, 5, 4, 16, 15, 13, 12, 12, 11, 14, 12, 10, 9, 8, 6, 13, 12, 10, 10, 9, 8, 18, 14, 13, 11, 10, 7, 13, 13, 10, 9, 6, 4, 11, 9, 8, 7, 3, 2, 7, 7, 5, 4, 3, 3, 19, 19, 19, 19, 19, 19, 12, 11, 10, 10, 10, 9, 17, 14, 12, 7, 4, 2
 |15, 15, 14, 12, 12, 11, 10, 9, 9, 8, 8, 7, 15, 11, 9, 6, 5, 3, 18, 13, 10, 10, 6, 3, 3, 2, 2, 1, 1, 1, 3, 3, 3, 3, 2, 2, 10, 8, 8, 7, 6, 5, 13, 11, 11, 9, 9, 8, 7, 7, 7, 7, 7, 7, 9, 8, 6, 6, 5, 3, 20, 16, 16, 15, 11, 10, 14, 13, 12, 12, 11, 11, 6, 6, 6, 6, 6, 6, 14, 12, 10, 8, 6, 4, 11, 11, 11, 11, 11, 11, 7, 7, 6, 5, 5, 4, 16, 14, 11, 11, 7, 7, 8, 8, 8, 8, 8, 8, 11, 10, 10, 10, 9, 9, 19, 17, 16, 15, 13, 12, 16, 15, 14, 14, 13, 12, 12, 12, 11, 10, 10, 9, 19, 15, 13, 9, 6, 5, 5, 4, 4, 4, 3, 3, 12, 11, 8, 6, 6, 4, 17, 16, 15, 15, 14, 13, 9, 8, 8, 7, 6, 6, 12, 10, 9, 9, 8, 7, 20, 19, 18, 18, 17, 17, 11, 11, 11, 10, 10, 10, 6, 5, 5, 4, 3, 2, 16, 12, 10, 6, 5, 2, 8, 8, 8, 7, 7, 7, 6, 6, 6, 6, 6, 6, 15, 14, 14, 14, 14, 14, 12, 11, 11, 11, 10, 9, 11, 7, 7, 6, 2, 2, 11, 11, 10, 10, 10, 9, 11, 11, 8, 7, 6, 4, 15, 13, 13, 11, 11, 9, 12, 9, 8, 7, 6, 5, 11, 10, 10, 10, 10, 10, 15, 15, 11, 9, 8, 6, 7, 5, 4, 4, 3, 1, 6, 5, 4, 2, 2, 1, 8, 8, 7, 7, 6, 6, 5, 5, 5, 5, 4, 4, 9, 7, 6, 3, 3, 1, 17, 15, 12, 10, 7, 6, 17, 16, 16, 15, 14, 14
 |15, 14, 13, 12, 11, 11, 10, 9, 8, 8, 7, 5, 19, 18, 18, 18, 17, 17, 15, 14, 14, 14, 14, 14, 12, 10, 8, 8, 5, 4, 13, 12, 12, 12, 11, 11, 9, 8, 8, 8, 6, 6, 19, 18, 17, 17, 16, 16, 1, 1, 1, 1, 1, 1, 9, 9, 6, 5, 3, 3, 16, 16, 16, 15, 14, 14, 10, 7, 6, 4, 3, 1, 17, 17, 16, 16, 15, 15, 6, 5, 5, 5, 5, 5, 17, 16, 16, 15, 15, 14, 3, 2, 2, 1, 1, 1, 20, 19, 18, 16, 15, 14, 8, 7, 5, 4, 4, 2, 15, 14, 14, 13, 13, 13, 14, 13, 12, 11, 10, 7, 17, 17, 15, 14, 13, 13, 8, 8, 7, 5, 4, 4, 18, 18, 17, 17, 17, 16, 16, 15, 15, 15, 15, 15, 15, 12, 9, 7, 5, 4, 18, 17, 17, 16, 13, 12, 19, 15, 15, 11, 7, 7, 17, 15, 14, 10, 9, 6, 17, 16, 16, 16, 16, 16, 13, 11, 10, 8, 7, 6, 15, 11, 10, 8, 3, 2, 13, 12, 9, 9, 6, 4, 14, 11, 10, 8, 4, 4, 15, 14, 14, 14, 14, 14, 8, 7, 7, 5, 4, 3, 16, 16, 15, 15, 15, 14, 12, 12, 12, 12, 12, 12, 18, 18, 16, 16, 15, 13, 20, 16, 14, 11, 9, 8, 18, 18, 16, 16, 15, 14, 6, 4, 4, 3, 2, 2, 6, 6, 6, 6, 6, 6, 15, 14, 14, 14, 14, 14, 14, 14, 13, 13, 12, 12, 19, 17, 16, 13, 12, 9, 8, 8, 7, 5, 4, 4, 17, 17, 15, 14, 14, 13, 16, 13, 12, 7, 7, 2, 13, 10, 9, 8, 6, 4, 3, 3, 3, 2, 2, 1|];